data/mip_solutions/furman_sahinidis/transshipment/9sp-al1_cplex.sol
Elapsed time: 0.0289781093597
Nodes explored: 0
Upper bound: 12.0
Lower bound: 12.0
y[0,0]=1
y[0,3]=1
y[0,4]=1
y[0,5]=1
y[1,4]=1
y[2,0]=1
y[2,1]=1
y[3,1]=1
y[3,2]=1
y[3,4]=1
y[3,5]=1
y[4,4]=1
q[0,0,1]=9.0
q[0,0,2]=3.38
q[0,0,3]=0.4
q[0,0,4]=1.6
q[0,3,2]=1.2
q[0,3,3]=0.6
q[0,3,4]=2.4
q[0,3,5]=0.9
q[0,3,6]=1.5
q[0,4,1]=1.7
q[0,4,2]=1.42
q[0,5,8]=4.6
q[1,4,2]=9.6
q[2,0,2]=2.62
q[2,0,3]=0.6
q[2,0,4]=2.4
q[2,1,2]=0.98
q[2,1,5]=0.9
q[2,1,6]=0.35
q[2,1,7]=1.75
q[3,1,3]=0.7
q[3,1,4]=2.8
q[3,1,5]=0.15
q[3,1,6]=1.4
q[3,2,4]=13.3
q[3,2,5]=5.25
q[3,4,3]=2.0
q[3,5,8]=14.4
q[4,4,1]=16.3
q[4,4,2]=0.98
r[0,6]=0.6
r[0,7]=1.6
r[0,8]=4.1
r[2,7]=1.15
r[3,4]=1.3
r[3,5]=1.2
r[3,6]=1.8
r[3,7]=10.4
r[3,8]=14.4
r[4,1]=17.28
r[4,2]=0.98
